problem_generation/data/GISP/train/er_n=61_m=1139_p=0.60_SET2_setparam=100.00_alpha=0.50_842.lp
maximize
OBJ:100x0 + 100x1 + 100x2 + 100x3 + 100x4 + 100x5 + 100x6 + 100x7 + 100x8 + 100x9 + 100x10 + 100x11 + 100x12 + 100x13 + 100x14 + 100x15 + 100x16 + 100x17 + 100x18 + 100x19 + 100x20 + 100x21 + 100x22 + 100x23 + 100x24 + 100x25 + 100x26 + 100x27 + 100x28 + 100x29 + 100x30 + 100x31 + 100x32 + 100x33 + 100x34 + 100x35 + 100x36 + 100x37 + 100x38 + 100x39 + 100x40 + 100x41 + 100x42 + 100x43 + 100x44 + 100x45 + 100x46 + 100x47 + 100x48 + 100x49 + 100x50 + 100x51 + 100x52 + 100x53 + 100x54 + 100x55 + 100x56 + 100x57 + 100x58 + 100x59 + 100x60 - y7_17 - y36_53 - y7_35 - y18_35 - y29_32 - y18_44 - y29_41 - y40_41 - y40_50 - y6_57 - y33_38 - y25_34 - y33_47 - y44_47 - y2_41 - y3_6 - y2_50 - y14_42 - y14_51 - y15_16 - y47_48 - y7_21 - y18_21 - y36_57 - y7_30 - y5_60 - y9_58 - y29_36 - y40_54 - y21_50 - y10_40 - y2_36 - y32_55 - y35_60 - y3_37 - y9_44 - y28_57 - y29_31 - y6_47 - y29_49 - y40_49 - y6_56 - y40_58 - y21_54 - y2_13 - y2_22 - y2_31 - y25_42 - y22_27 - y3_23 - y14_32 - y16_60 - y17_25 - y47_56 - y9_48 - y50_58 - y29_35 - y6_42 - y21_49 - y10_12 - y20_53 - y31_53 - y54_55 - y25_28 - y2_35 - y3_9 - y24_41 - y16_37 - y1_48 - y1_57 - y13_59 - y17_20 - y28_38 - y36_51 - y9_34 - y5_54 - y9_52 - y29_30 - y27_60 - y10_16 - y23_53 - y13_27 - y1_34 - y35_36 - y43_49 - y13_45 - y24_45 - y35_45 - y16_41 - y13_54 - y24_54 - y46_60 - y9_29 - y5_49 - y9_47 - y5_58 - y27_55 - y0_56 - y20_34 - y10_11 - y39_47 - y2_7 - y31_43 - y23_39 - y12_48 - y12_57 - y13_22 - y23_57 - y4_53 - y32_35 - y16_27 - y24_40 - y1_47 - y13_49 - y24_49 - y5_26 - y9_24 - y38_60 - y27_50 - y30_46 - y42_48 - y30_55 - y11_60 - y23_25 - y39_42 - y20_38 - y39_51 - y4_30 - y12_43 - y23_43 - y20_56 - y23_52 - y13_17 - y24_26 - y32_39 - y34_58 - y1_33 - y24_35 - y24_44 - y9_10 - y19_41 - y30_41 - y42_43 - y0_37 - y50_56 - y8_50 - y19_50 - y30_59 - y20_24 - y12_20 - y39_46 - y23_29 - y20_42 - y31_42 - y12_56 - y4_52 - y34_53 - y45_53 - y1_28 - y16_35 - y5_7 - y9_14 - y7_44 - y7_53 - y27_31 - y8_27 - y19_27 - y19_36 - y30_36 - y27_49 - y0_32 - y19_45 - y27_58 - y11_41 - y8_54 - y20_28 - y4_11 - y0_59 - y12_24 - y41_60 - y4_20 - y4_29 - y12_42 - y1_5 - y13_16 - y1_23 - y16_21 - y34_57 - y45_57 - y3_60 - y14_60 - y46_49 - y15_43 - y38_45 - y46_58 - y57_58 - y49_54 - y18_48 - y18_57 - y19_22 - y27_35 - y8_31 - y27_44 - y11_27 - y0_36 - y11_36 - y30_49 - y0_45 - y11_45 - y30_58 - y4_6 - y0_54 - y41_55 - y52_55 - y20_32 - y4_15 - y33_60 - y37_39 - y22_50 - y3_46 - y15_29 - y26_29 - y5_6 - y26_38 - y38_40 - y18_34 - y18_43 - y15_56 - y26_56 - y0_4 - y0_13 - y11_13 - y11_31 - y19_44 - y0_40 - y41_50 - y4_10 - y12_23 - y1_4 - y25_60 - y22_36 - y3_32 - y14_41 - y37_52 - y14_59 - y15_24 - y18_20 - y7_29 - y26_51 - y18_47 - y19_21 - y29_53 - y0_26 - y0_35 - y11_35 - y33_41 - y10_48 - y2_44 - y2_53 - y25_55 - y14_36 - y37_38 - y34_51 - y45_51 - y14_54 - y37_56 - y15_28 - y26_28 - y7_24 - y47_60 - y15_37 - y7_33 - y26_46 - y11_12 - y40_48 - y21_44 - y33_36 - y4_9 - y44_45 - y41_58 - y2_39 - y25_41 - y10_52 - y44_54 - y25_50 - y25_59 - y22_35 - y3_49 - y36_46 - y15_23 - y55_59 - y18_19 - y15_32 - y26_32 - y17_60 - y28_60 - y18_37 - y6_41 - y48_56 - y11_16 - y21_48 - y6_59 - y10_20 - y25_27 - y10_38 - y3_8 - y10_56 - y2_52 - y3_17 - y14_17 - y25_54 - y14_26 - y3_35 - y7_14 - y28_46 - y9_42 - y5_53 - y28_55 - y6_27 - y0_2 - y40_47 - y21_43 - y6_54 - y29_56 - y40_56 - y2_20 - y10_33 - y33_35 - y33_44 - y32_48 - y43_48 - y22_25 - y2_56 - y14_21 - y32_57 - y13_53 - y17_32 - y28_32 - y7_9 - y47_54 - y9_46 - y17_59 - y28_59 - y58_60 - y6_31 - y29_33 - y29_51 - y39_55 - y2_15 - y2_24 - y25_26 - y10_37 - y25_35 - y2_42 - y32_43 - y24_39 - y14_16 - y32_52 - y43_52 - y13_48 - y14_25 - y5_34 - y36_49 - y47_49 - y17_45 - y36_58 - y9_41 - y47_58 - y17_54 - y28_54 - y50_60 - y6_44 - y2_19 - y20_55 - y10_32 - y12_51 - y23_51 - y12_60 - y2_37 - y4_56 - y32_38 - y3_11 - y51_60 - y13_43 - y13_52 - y24_52 - y35_52 - y9_18 - y5_29 - y28_31 - y28_40 - y5_47 - y17_49 - y9_45 - y5_56 - y50_55 - y21_28 - y6_39 - y39_45 - y2_5 - y20_50 - y23_46 - y31_59 - y4_42 - y23_55 - y32_33 - y1_27 - y13_29 - y4_60 - y24_29 - y32_42 - y24_38 - y43_51 - y16_34 - y13_47 - y35_47 - y1_54 - y16_52 - y36_39 - y9_22 - y38_58 - y17_35 - y28_35 - y9_31 - y5_42 - y28_44 - y27_57 - y42_55 - y0_58 - y10_13 - y2_18 - y4_37 - y12_50 - y23_50 - y4_46 - y4_55 - y1_31 - y13_33 - y24_33 - y32_46 - y13_42 - y24_42 - y35_51 - y17_21 - y46_57 - y49_53 - y5_28 - y28_30 - y6_20 - y50_54 - y42_50 - y0_44 - y11_44 - y8_57 - y0_53 - y20_40 - y31_40 - y23_36 - y31_49 - y31_58 - y12_54 - y13_19 - y13_28 - y16_24 - y34_60 - y13_37 - y35_37 - y1_44 - y46_52 - y26_55 - y38_57 - y49_57 - y7_51 - y27_38 - y30_34 - y19_43 - y0_39 - y8_52 - y30_52 - y20_26 - y0_57 - y31_35 - y12_31 - y23_31 - y4_27 - y1_12 - y45_46 - y13_23 - y1_30 - y38_43 - y5_18 - y46_56 - y7_46 - y26_59 - y8_20 - y27_42 - y0_25 - y8_38 - y19_38 - y27_51 - y0_34 - y0_43 - y8_56 - y11_52 - y41_53 - y12_26 - y4_22 - y23_44 - y1_7 - y4_40 - y56_59 - y14_53 - y37_55 - y15_27 - y5_13 - y15_45 - y26_45 - y15_54 - y26_54 - y38_56 - y18_59 - y19_24 - y48_60 - y11_20 - y19_33 - y19_42 - y0_38 - y19_51 - y0_47 - y33_53 - y23_30 - y4_26 - y10_60 - y22_34 - y34_36 - y22_43 - y3_39 - y14_39 - y37_41 - y45_54 - y37_50 - y14_57 - y7_36 - y18_36 - y15_49 - y7_54 - y48_55 - y0_15 - y11_15 - y8_28 - y0_24 - y29_60 - y21_56 - y41_43 - y33_39 - y41_52 - y33_48 - y44_48 - y4_21 - y33_57 - y44_57 - y14_34 - y37_45 - y45_58 - y15_26 - y7_22 - y18_22 - y26_35 - y7_31 - y8_14 - y48_50 - y29_55 - y21_51 - y0_28 - y41_47 - y4_7 - y33_43 - y4_16 - y33_52 - y44_52 - y2_46 - y25_48 - y22_33 - y22_51 - y14_47 - y14_56
 Subject to
C1: x0+x2-y0_2 <=1 
C2: x0+x3 <=1 
C3: x0+x4-y0_4 <=1 
C4: x0+x7 <=1 
C5: x0+x9 <=1 
C6: x0+x13-y0_13 <=1 
C7: x0+x14 <=1 
C8: x0+x15-y0_15 <=1 
C9: x0+x17 <=1 
C10: x0+x21 <=1 
C11: x0+x23 <=1 
C12: x0+x24-y0_24 <=1 
C13: x0+x25-y0_25 <=1 
C14: x0+x26-y0_26 <=1 
C15: x0+x27 <=1 
C16: x0+x28-y0_28 <=1 
C17: x0+x29 <=1 
C18: x0+x30 <=1 
C19: x0+x31 <=1 
C20: x0+x32-y0_32 <=1 
C21: x0+x33 <=1 
C22: x0+x34-y0_34 <=1 
C23: x0+x35-y0_35 <=1 
C24: x0+x36-y0_36 <=1 
C25: x0+x37-y0_37 <=1 
C26: x0+x38-y0_38 <=1 
C27: x0+x39-y0_39 <=1 
C28: x0+x40-y0_40 <=1 
C29: x0+x43-y0_43 <=1 
C30: x0+x44-y0_44 <=1 
C31: x0+x45-y0_45 <=1 
C32: x0+x47-y0_47 <=1 
C33: x0+x48 <=1 
C34: x0+x53-y0_53 <=1 
C35: x0+x54-y0_54 <=1 
C36: x0+x56-y0_56 <=1 
C37: x0+x57-y0_57 <=1 
C38: x0+x58-y0_58 <=1 
C39: x0+x59-y0_59 <=1 
C40: x0+x60 <=1 
C41: x1+x3 <=1 
C42: x1+x4-y1_4 <=1 
C43: x1+x5-y1_5 <=1 
C44: x1+x7-y1_7 <=1 
C45: x1+x10 <=1 
C46: x1+x12-y1_12 <=1 
C47: x1+x13 <=1 
C48: x1+x16 <=1 
C49: x1+x18 <=1 
C50: x1+x19 <=1 
C51: x1+x20 <=1 
C52: x1+x22 <=1 
C53: x1+x23-y1_23 <=1 
C54: x1+x24 <=1 
C55: x1+x25 <=1 
C56: x1+x27-y1_27 <=1 
C57: x1+x28-y1_28 <=1 
C58: x1+x30-y1_30 <=1 
C59: x1+x31-y1_31 <=1 
C60: x1+x32 <=1 
C61: x1+x33-y1_33 <=1 
C62: x1+x34-y1_34 <=1 
C63: x1+x37 <=1 
C64: x1+x38 <=1 
C65: x1+x40 <=1 
C66: x1+x41 <=1 
C67: x1+x42 <=1 
C68: x1+x44-y1_44 <=1 
C69: x1+x46 <=1 
C70: x1+x47-y1_47 <=1 
C71: x1+x48-y1_48 <=1 
C72: x1+x49 <=1 
C73: x1+x50 <=1 
C74: x1+x52 <=1 
C75: x1+x53 <=1 
C76: x1+x54-y1_54 <=1 
C77: x1+x55 <=1 
C78: x1+x57-y1_57 <=1 
C79: x1+x60 <=1 
C80: x2+x4 <=1 
C81: x2+x5-y2_5 <=1 
C82: x2+x6 <=1 
C83: x2+x7-y2_7 <=1 
C84: x2+x10 <=1 
C85: x2+x13-y2_13 <=1 
C86: x2+x15-y2_15 <=1 
C87: x2+x16 <=1 
C88: x2+x18-y2_18 <=1 
C89: x2+x19-y2_19 <=1 
C90: x2+x20-y2_20 <=1 
C91: x2+x22-y2_22 <=1 
C92: x2+x24-y2_24 <=1 
C93: x2+x26 <=1 
C94: x2+x30 <=1 
C95: x2+x31-y2_31 <=1 
C96: x2+x32 <=1 
C97: x2+x34 <=1 
C98: x2+x35-y2_35 <=1 
C99: x2+x36-y2_36 <=1 
C100: x2+x37-y2_37 <=1 
C101: x2+x38 <=1 
C102: x2+x39-y2_39 <=1 
C103: x2+x40 <=1 
C104: x2+x41-y2_41 <=1 
C105: x2+x42-y2_42 <=1 
C106: x2+x43 <=1 
C107: x2+x44-y2_44 <=1 
C108: x2+x46-y2_46 <=1 
C109: x2+x47 <=1 
C110: x2+x50-y2_50 <=1 
C111: x2+x52-y2_52 <=1 
C112: x2+x53-y2_53 <=1 
C113: x2+x56-y2_56 <=1 
C114: x2+x57 <=1 
C115: x2+x58 <=1 
C116: x2+x59 <=1 
C117: x2+x60 <=1 
C118: x3+x4 <=1 
C119: x3+x5 <=1 
C120: x3+x6-y3_6 <=1 
C121: x3+x8-y3_8 <=1 
C122: x3+x9-y3_9 <=1 
C123: x3+x11-y3_11 <=1 
C124: x3+x14 <=1 
C125: x3+x16 <=1 
C126: x3+x17-y3_17 <=1 
C127: x3+x18 <=1 
C128: x3+x21 <=1 
C129: x3+x23-y3_23 <=1 
C130: x3+x26 <=1 
C131: x3+x30 <=1 
C132: x3+x32-y3_32 <=1 
C133: x3+x34 <=1 
C134: x3+x35-y3_35 <=1 
C135: x3+x37-y3_37 <=1 
C136: x3+x39-y3_39 <=1 
C137: x3+x40 <=1 
C138: x3+x46-y3_46 <=1 
C139: x3+x48 <=1 
C140: x3+x49-y3_49 <=1 
C141: x3+x50 <=1 
C142: x3+x52 <=1 
C143: x3+x57 <=1 
C144: x3+x58 <=1 
C145: x3+x59 <=1 
C146: x3+x60-y3_60 <=1 
C147: x4+x6-y4_6 <=1 
C148: x4+x7-y4_7 <=1 
C149: x4+x8 <=1 
C150: x4+x9-y4_9 <=1 
C151: x4+x10-y4_10 <=1 
C152: x4+x11-y4_11 <=1 
C153: x4+x13 <=1 
C154: x4+x15-y4_15 <=1 
C155: x4+x16-y4_16 <=1 
C156: x4+x20-y4_20 <=1 
C157: x4+x21-y4_21 <=1 
C158: x4+x22-y4_22 <=1 
C159: x4+x26-y4_26 <=1 
C160: x4+x27-y4_27 <=1 
C161: x4+x28 <=1 
C162: x4+x29-y4_29 <=1 
C163: x4+x30-y4_30 <=1 
C164: x4+x31 <=1 
C165: x4+x32 <=1 
C166: x4+x37-y4_37 <=1 
C167: x4+x38 <=1 
C168: x4+x40-y4_40 <=1 
C169: x4+x42-y4_42 <=1 
C170: x4+x44 <=1 
C171: x4+x45 <=1 
C172: x4+x46-y4_46 <=1 
C173: x4+x52-y4_52 <=1 
C174: x4+x53-y4_53 <=1 
C175: x4+x55-y4_55 <=1 
C176: x4+x56-y4_56 <=1 
C177: x4+x60-y4_60 <=1 
C178: x5+x6-y5_6 <=1 
C179: x5+x7-y5_7 <=1 
C180: x5+x8 <=1 
C181: x5+x10 <=1 
C182: x5+x13-y5_13 <=1 
C183: x5+x16 <=1 
C184: x5+x18-y5_18 <=1 
C185: x5+x21 <=1 
C186: x5+x23 <=1 
C187: x5+x24 <=1 
C188: x5+x25 <=1 
C189: x5+x26-y5_26 <=1 
C190: x5+x28-y5_28 <=1 
C191: x5+x29-y5_29 <=1 
C192: x5+x30 <=1 
C193: x5+x32 <=1 
C194: x5+x34-y5_34 <=1 
C195: x5+x36 <=1 
C196: x5+x38 <=1 
C197: x5+x39 <=1 
C198: x5+x40 <=1 
C199: x5+x42-y5_42 <=1 
C200: x5+x43 <=1 
C201: x5+x45 <=1 
C202: x5+x46 <=1 
C203: x5+x47-y5_47 <=1 
C204: x5+x48 <=1 
C205: x5+x49-y5_49 <=1 
C206: x5+x50 <=1 
C207: x5+x53-y5_53 <=1 
C208: x5+x54-y5_54 <=1 
C209: x5+x55 <=1 
C210: x5+x56-y5_56 <=1 
C211: x5+x57 <=1 
C212: x5+x58-y5_58 <=1 
C213: x5+x60-y5_60 <=1 
C214: x6+x11 <=1 
C215: x6+x12 <=1 
C216: x6+x15 <=1 
C217: x6+x16 <=1 
C218: x6+x17 <=1 
C219: x6+x20-y6_20 <=1 
C220: x6+x23 <=1 
C221: x6+x25 <=1 
C222: x6+x27-y6_27 <=1 
C223: x6+x28 <=1 
C224: x6+x29 <=1 
C225: x6+x31-y6_31 <=1 
C226: x6+x32 <=1 
C227: x6+x34 <=1 
C228: x6+x37 <=1 
C229: x6+x38 <=1 
C230: x6+x39-y6_39 <=1 
C231: x6+x41-y6_41 <=1 
C232: x6+x42-y6_42 <=1 
C233: x6+x44-y6_44 <=1 
C234: x6+x46 <=1 
C235: x6+x47-y6_47 <=1 
C236: x6+x52 <=1 
C237: x6+x54-y6_54 <=1 
C238: x6+x56-y6_56 <=1 
C239: x6+x57-y6_57 <=1 
C240: x6+x59-y6_59 <=1 
C241: x6+x60 <=1 
C242: x7+x9-y7_9 <=1 
C243: x7+x11 <=1 
C244: x7+x14-y7_14 <=1 
C245: x7+x17-y7_17 <=1 
C246: x7+x18 <=1 
C247: x7+x19 <=1 
C248: x7+x20 <=1 
C249: x7+x21-y7_21 <=1 
C250: x7+x22-y7_22 <=1 
C251: x7+x24-y7_24 <=1 
C252: x7+x25 <=1 
C253: x7+x26 <=1 
C254: x7+x28 <=1 
C255: x7+x29-y7_29 <=1 
C256: x7+x30-y7_30 <=1 
C257: x7+x31-y7_31 <=1 
C258: x7+x32 <=1 
C259: x7+x33-y7_33 <=1 
C260: x7+x35-y7_35 <=1 
C261: x7+x36-y7_36 <=1 
C262: x7+x37 <=1 
C263: x7+x38 <=1 
C264: x7+x40 <=1 
C265: x7+x42 <=1 
C266: x7+x44-y7_44 <=1 
C267: x7+x46-y7_46 <=1 
C268: x7+x47 <=1 
C269: x7+x49 <=1 
C270: x7+x50 <=1 
C271: x7+x51-y7_51 <=1 
C272: x7+x52 <=1 
C273: x7+x53-y7_53 <=1 
C274: x7+x54-y7_54 <=1 
C275: x7+x55 <=1 
C276: x7+x56 <=1 
C277: x7+x59 <=1 
C278: x7+x60 <=1 
C279: x8+x9 <=1 
C280: x8+x10 <=1 
C281: x8+x12 <=1 
C282: x8+x14-y8_14 <=1 
C283: x8+x15 <=1 
C284: x8+x20-y8_20 <=1 
C285: x8+x21 <=1 
C286: x8+x22 <=1 
C287: x8+x24 <=1 
C288: x8+x25 <=1 
C289: x8+x26 <=1 
C290: x8+x27-y8_27 <=1 
C291: x8+x28-y8_28 <=1 
C292: x8+x31-y8_31 <=1 
C293: x8+x34 <=1 
C294: x8+x35 <=1 
C295: x8+x36 <=1 
C296: x8+x37 <=1 
C297: x8+x38-y8_38 <=1 
C298: x8+x40 <=1 
C299: x8+x41 <=1 
C300: x8+x42 <=1 
C301: x8+x45 <=1 
C302: x8+x47 <=1 
C303: x8+x48 <=1 
C304: x8+x49 <=1 
C305: x8+x50-y8_50 <=1 
C306: x8+x51 <=1 
C307: x8+x52-y8_52 <=1 
C308: x8+x54-y8_54 <=1 
C309: x8+x56-y8_56 <=1 
C310: x8+x57-y8_57 <=1 
C311: x8+x60 <=1 
C312: x9+x10-y9_10 <=1 
C313: x9+x14-y9_14 <=1 
C314: x9+x18-y9_18 <=1 
C315: x9+x19 <=1 
C316: x9+x22-y9_22 <=1 
C317: x9+x23 <=1 
C318: x9+x24-y9_24 <=1 
C319: x9+x26 <=1 
C320: x9+x29-y9_29 <=1 
C321: x9+x30 <=1 
C322: x9+x31-y9_31 <=1 
C323: x9+x33 <=1 
C324: x9+x34-y9_34 <=1 
C325: x9+x39 <=1 
C326: x9+x41-y9_41 <=1 
C327: x9+x42-y9_42 <=1 
C328: x9+x43 <=1 
C329: x9+x44-y9_44 <=1 
C330: x9+x45-y9_45 <=1 
C331: x9+x46-y9_46 <=1 
C332: x9+x47-y9_47 <=1 
C333: x9+x48-y9_48 <=1 
C334: x9+x52-y9_52 <=1 
C335: x9+x54 <=1 
C336: x9+x55 <=1 
C337: x9+x58-y9_58 <=1 
C338: x9+x59 <=1 
C339: x10+x11-y10_11 <=1 
C340: x10+x12-y10_12 <=1 
C341: x10+x13-y10_13 <=1 
C342: x10+x16-y10_16 <=1 
C343: x10+x19 <=1 
C344: x10+x20-y10_20 <=1 
C345: x10+x21 <=1 
C346: x10+x22 <=1 
C347: x10+x23 <=1 
C348: x10+x24 <=1 
C349: x10+x32-y10_32 <=1 
C350: x10+x33-y10_33 <=1 
C351: x10+x34 <=1 
C352: x10+x35 <=1 
C353: x10+x37-y10_37 <=1 
C354: x10+x38-y10_38 <=1 
C355: x10+x40-y10_40 <=1 
C356: x10+x41 <=1 
C357: x10+x46 <=1 
C358: x10+x48-y10_48 <=1 
C359: x10+x50 <=1 
C360: x10+x51 <=1 
C361: x10+x52-y10_52 <=1 
C362: x10+x54 <=1 
C363: x10+x56-y10_56 <=1 
C364: x10+x59 <=1 
C365: x10+x60-y10_60 <=1 
C366: x11+x12-y11_12 <=1 
C367: x11+x13-y11_13 <=1 
C368: x11+x14 <=1 
C369: x11+x15-y11_15 <=1 
C370: x11+x16-y11_16 <=1 
C371: x11+x17 <=1 
C372: x11+x20-y11_20 <=1 
C373: x11+x21 <=1 
C374: x11+x23 <=1 
C375: x11+x27-y11_27 <=1 
C376: x11+x30 <=1 
C377: x11+x31-y11_31 <=1 
C378: x11+x33 <=1 
C379: x11+x35-y11_35 <=1 
C380: x11+x36-y11_36 <=1 
C381: x11+x39 <=1 
C382: x11+x41-y11_41 <=1 
C383: x11+x42 <=1 
C384: x11+x44-y11_44 <=1 
C385: x11+x45-y11_45 <=1 
C386: x11+x47 <=1 
C387: x11+x49 <=1 
C388: x11+x50 <=1 
C389: x11+x51 <=1 
C390: x11+x52-y11_52 <=1 
C391: x11+x57 <=1 
C392: x11+x60-y11_60 <=1 
C393: x12+x14 <=1 
C394: x12+x20-y12_20 <=1 
C395: x12+x21 <=1 
C396: x12+x22 <=1 
C397: x12+x23-y12_23 <=1 
C398: x12+x24-y12_24 <=1 
C399: x12+x25 <=1 
C400: x12+x26-y12_26 <=1 
C401: x12+x29 <=1 
C402: x12+x31-y12_31 <=1 
C403: x12+x35 <=1 
C404: x12+x36 <=1 
C405: x12+x37 <=1 
C406: x12+x40 <=1 
C407: x12+x41 <=1 
C408: x12+x42-y12_42 <=1 
C409: x12+x43-y12_43 <=1 
C410: x12+x48-y12_48 <=1 
C411: x12+x50-y12_50 <=1 
C412: x12+x51-y12_51 <=1 
C413: x12+x54-y12_54 <=1 
C414: x12+x55 <=1 
C415: x12+x56-y12_56 <=1 
C416: x12+x57-y12_57 <=1 
C417: x12+x60-y12_60 <=1 
C418: x13+x15 <=1 
C419: x13+x16-y13_16 <=1 
C420: x13+x17-y13_17 <=1 
C421: x13+x19-y13_19 <=1 
C422: x13+x22-y13_22 <=1 
C423: x13+x23-y13_23 <=1 
C424: x13+x24 <=1 
C425: x13+x25 <=1 
C426: x13+x26 <=1 
C427: x13+x27-y13_27 <=1 
C428: x13+x28-y13_28 <=1 
C429: x13+x29-y13_29 <=1 
C430: x13+x32 <=1 
C431: x13+x33-y13_33 <=1 
C432: x13+x35 <=1 
C433: x13+x37-y13_37 <=1 
C434: x13+x39 <=1 
C435: x13+x40 <=1 
C436: x13+x41 <=1 
C437: x13+x42-y13_42 <=1 
C438: x13+x43-y13_43 <=1 
C439: x13+x44 <=1 
C440: x13+x45-y13_45 <=1 
C441: x13+x46 <=1 
C442: x13+x47-y13_47 <=1 
C443: x13+x48-y13_48 <=1 
C444: x13+x49-y13_49 <=1 
C445: x13+x52-y13_52 <=1 
C446: x13+x53-y13_53 <=1 
C447: x13+x54-y13_54 <=1 
C448: x13+x55 <=1 
C449: x13+x57 <=1 
C450: x13+x58 <=1 
C451: x13+x59-y13_59 <=1 
C452: x14+x16-y14_16 <=1 
C453: x14+x17-y14_17 <=1 
C454: x14+x20 <=1 
C455: x14+x21-y14_21 <=1 
C456: x14+x24 <=1 
C457: x14+x25-y14_25 <=1 
C458: x14+x26-y14_26 <=1 
C459: x14+x27 <=1 
C460: x14+x28 <=1 
C461: x14+x30 <=1 
C462: x14+x31 <=1 
C463: x14+x32-y14_32 <=1 
C464: x14+x34-y14_34 <=1 
C465: x14+x36-y14_36 <=1 
C466: x14+x37 <=1 
C467: x14+x39-y14_39 <=1 
C468: x14+x40 <=1 
C469: x14+x41-y14_41 <=1 
C470: x14+x42-y14_42 <=1 
C471: x14+x43 <=1 
C472: x14+x44 <=1 
C473: x14+x45 <=1 
C474: x14+x47-y14_47 <=1 
C475: x14+x48 <=1 
C476: x14+x50 <=1 
C477: x14+x51-y14_51 <=1 
C478: x14+x53-y14_53 <=1 
C479: x14+x54-y14_54 <=1 
C480: x14+x56-y14_56 <=1 
C481: x14+x57-y14_57 <=1 
C482: x14+x58 <=1 
C483: x14+x59-y14_59 <=1 
C484: x14+x60-y14_60 <=1 
C485: x15+x16-y15_16 <=1 
C486: x15+x17 <=1 
C487: x15+x18 <=1 
C488: x15+x21 <=1 
C489: x15+x22 <=1 
C490: x15+x23-y15_23 <=1 
C491: x15+x24-y15_24 <=1 
C492: x15+x26-y15_26 <=1 
C493: x15+x27-y15_27 <=1 
C494: x15+x28-y15_28 <=1 
C495: x15+x29-y15_29 <=1 
C496: x15+x31 <=1 
C497: x15+x32-y15_32 <=1 
C498: x15+x34 <=1 
C499: x15+x37-y15_37 <=1 
C500: x15+x38 <=1 
C501: x15+x41 <=1 
C502: x15+x42 <=1 
C503: x15+x43-y15_43 <=1 
C504: x15+x45-y15_45 <=1 
C505: x15+x46 <=1 
C506: x15+x47 <=1 
C507: x15+x48 <=1 
C508: x15+x49-y15_49 <=1 
C509: x15+x50 <=1 
C510: x15+x52 <=1 
C511: x15+x53 <=1 
C512: x15+x54-y15_54 <=1 
C513: x15+x56-y15_56 <=1 
C514: x15+x59 <=1 
C515: x16+x20 <=1 
C516: x16+x21-y16_21 <=1 
C517: x16+x23 <=1 
C518: x16+x24-y16_24 <=1 
C519: x16+x25 <=1 
C520: x16+x27-y16_27 <=1 
C521: x16+x29 <=1 
C522: x16+x30 <=1 
C523: x16+x34-y16_34 <=1 
C524: x16+x35-y16_35 <=1 
C525: x16+x37-y16_37 <=1 
C526: x16+x38 <=1 
C527: x16+x39 <=1 
C528: x16+x41-y16_41 <=1 
C529: x16+x42 <=1 
C530: x16+x43 <=1 
C531: x16+x46 <=1 
C532: x16+x47 <=1 
C533: x16+x52-y16_52 <=1 
C534: x16+x55 <=1 
C535: x16+x56 <=1 
C536: x16+x57 <=1 
C537: x16+x60-y16_60 <=1 
C538: x17+x20-y17_20 <=1 
C539: x17+x21-y17_21 <=1 
C540: x17+x24 <=1 
C541: x17+x25-y17_25 <=1 
C542: x17+x26 <=1 
C543: x17+x28 <=1 
C544: x17+x30 <=1 
C545: x17+x31 <=1 
C546: x17+x32-y17_32 <=1 
C547: x17+x33 <=1 
C548: x17+x35-y17_35 <=1 
C549: x17+x36 <=1 
C550: x17+x37 <=1 
C551: x17+x40 <=1 
C552: x17+x42 <=1 
C553: x17+x45-y17_45 <=1 
C554: x17+x46 <=1 
C555: x17+x48 <=1 
C556: x17+x49-y17_49 <=1 
C557: x17+x50 <=1 
C558: x17+x52 <=1 
C559: x17+x53 <=1 
C560: x17+x54-y17_54 <=1 
C561: x17+x55 <=1 
C562: x17+x58 <=1 
C563: x17+x59-y17_59 <=1 
C564: x17+x60-y17_60 <=1 
C565: x18+x19-y18_19 <=1 
C566: x18+x20-y18_20 <=1 
C567: x18+x21-y18_21 <=1 
C568: x18+x22-y18_22 <=1 
C569: x18+x23 <=1 
C570: x18+x25 <=1 
C571: x18+x26 <=1 
C572: x18+x27 <=1 
C573: x18+x29 <=1 
C574: x18+x30 <=1 
C575: x18+x33 <=1 
C576: x18+x34-y18_34 <=1 
C577: x18+x35-y18_35 <=1 
C578: x18+x36-y18_36 <=1 
C579: x18+x37-y18_37 <=1 
C580: x18+x41 <=1 
C581: x18+x43-y18_43 <=1 
C582: x18+x44-y18_44 <=1 
C583: x18+x45 <=1 
C584: x18+x47-y18_47 <=1 
C585: x18+x48-y18_48 <=1 
C586: x18+x52 <=1 
C587: x18+x54 <=1 
C588: x18+x55 <=1 
C589: x18+x56 <=1 
C590: x18+x57-y18_57 <=1 
C591: x18+x58 <=1 
C592: x18+x59-y18_59 <=1 
C593: x18+x60 <=1 
C594: x19+x20 <=1 
C595: x19+x21-y19_21 <=1 
C596: x19+x22-y19_22 <=1 
C597: x19+x23 <=1 
C598: x19+x24-y19_24 <=1 
C599: x19+x26 <=1 
C600: x19+x27-y19_27 <=1 
C601: x19+x29 <=1 
C602: x19+x30 <=1 
C603: x19+x33-y19_33 <=1 
C604: x19+x36-y19_36 <=1 
C605: x19+x38-y19_38 <=1 
C606: x19+x41-y19_41 <=1 
C607: x19+x42-y19_42 <=1 
C608: x19+x43-y19_43 <=1 
C609: x19+x44-y19_44 <=1 
C610: x19+x45-y19_45 <=1 
C611: x19+x47 <=1 
C612: x19+x49 <=1 
C613: x19+x50-y19_50 <=1 
C614: x19+x51-y19_51 <=1 
C615: x19+x53 <=1 
C616: x19+x54 <=1 
C617: x19+x55 <=1 
C618: x19+x56 <=1 
C619: x19+x58 <=1 
C620: x20+x21 <=1 
C621: x20+x22 <=1 
C622: x20+x23 <=1 
C623: x20+x24-y20_24 <=1 
C624: x20+x26-y20_26 <=1 
C625: x20+x27 <=1 
C626: x20+x28-y20_28 <=1 
C627: x20+x30 <=1 
C628: x20+x32-y20_32 <=1 
C629: x20+x34-y20_34 <=1 
C630: x20+x35 <=1 
C631: x20+x37 <=1 
C632: x20+x38-y20_38 <=1 
C633: x20+x39 <=1 
C634: x20+x40-y20_40 <=1 
C635: x20+x42-y20_42 <=1 
C636: x20+x44 <=1 
C637: x20+x45 <=1 
C638: x20+x48 <=1 
C639: x20+x49 <=1 
C640: x20+x50-y20_50 <=1 
C641: x20+x51 <=1 
C642: x20+x53-y20_53 <=1 
C643: x20+x55-y20_55 <=1 
C644: x20+x56-y20_56 <=1 
C645: x20+x57 <=1 
C646: x20+x58 <=1 
C647: x21+x25 <=1 
C648: x21+x26 <=1 
C649: x21+x27 <=1 
C650: x21+x28-y21_28 <=1 
C651: x21+x29 <=1 
C652: x21+x30 <=1 
C653: x21+x32 <=1 
C654: x21+x33 <=1 
C655: x21+x34 <=1 
C656: x21+x35 <=1 
C657: x21+x38 <=1 
C658: x21+x39 <=1 
C659: x21+x40 <=1 
C660: x21+x41 <=1 
C661: x21+x43-y21_43 <=1 
C662: x21+x44-y21_44 <=1 
C663: x21+x47 <=1 
C664: x21+x48-y21_48 <=1 
C665: x21+x49-y21_49 <=1 
C666: x21+x50-y21_50 <=1 
C667: x21+x51-y21_51 <=1 
C668: x21+x52 <=1 
C669: x21+x53 <=1 
C670: x21+x54-y21_54 <=1 
C671: x21+x55 <=1 
C672: x21+x56-y21_56 <=1 
C673: x21+x58 <=1 
C674: x21+x60 <=1 
C675: x22+x24 <=1 
C676: x22+x25-y22_25 <=1 
C677: x22+x26 <=1 
C678: x22+x27-y22_27 <=1 
C679: x22+x29 <=1 
C680: x22+x30 <=1 
C681: x22+x33-y22_33 <=1 
C682: x22+x34-y22_34 <=1 
C683: x22+x35-y22_35 <=1 
C684: x22+x36-y22_36 <=1 
C685: x22+x38 <=1 
C686: x22+x39 <=1 
C687: x22+x40 <=1 
C688: x22+x42 <=1 
C689: x22+x43-y22_43 <=1 
C690: x22+x44 <=1 
C691: x22+x50-y22_50 <=1 
C692: x22+x51-y22_51 <=1 
C693: x22+x52 <=1 
C694: x22+x56 <=1 
C695: x23+x25-y23_25 <=1 
C696: x23+x29-y23_29 <=1 
C697: x23+x30-y23_30 <=1 
C698: x23+x31-y23_31 <=1 
C699: x23+x32 <=1 
C700: x23+x33 <=1 
C701: x23+x36-y23_36 <=1 
C702: x23+x38 <=1 
C703: x23+x39-y23_39 <=1 
C704: x23+x43-y23_43 <=1 
C705: x23+x44-y23_44 <=1 
C706: x23+x45 <=1 
C707: x23+x46-y23_46 <=1 
C708: x23+x47 <=1 
C709: x23+x48 <=1 
C710: x23+x49 <=1 
C711: x23+x50-y23_50 <=1 
C712: x23+x51-y23_51 <=1 
C713: x23+x52-y23_52 <=1 
C714: x23+x53-y23_53 <=1 
C715: x23+x55-y23_55 <=1 
C716: x23+x57-y23_57 <=1 
C717: x24+x26-y24_26 <=1 
C718: x24+x27 <=1 
C719: x24+x28 <=1 
C720: x24+x29-y24_29 <=1 
C721: x24+x31 <=1 
C722: x24+x32 <=1 
C723: x24+x33-y24_33 <=1 
C724: x24+x34 <=1 
C725: x24+x35-y24_35 <=1 
C726: x24+x37 <=1 
C727: x24+x38-y24_38 <=1 
C728: x24+x39-y24_39 <=1 
C729: x24+x40-y24_40 <=1 
C730: x24+x41-y24_41 <=1 
C731: x24+x42-y24_42 <=1 
C732: x24+x44-y24_44 <=1 
C733: x24+x45-y24_45 <=1 
C734: x24+x46 <=1 
C735: x24+x49-y24_49 <=1 
C736: x24+x52-y24_52 <=1 
C737: x24+x54-y24_54 <=1 
C738: x24+x56 <=1 
C739: x24+x57 <=1 
C740: x24+x60 <=1 
C741: x25+x26-y25_26 <=1 
C742: x25+x27-y25_27 <=1 
C743: x25+x28-y25_28 <=1 
C744: x25+x30 <=1 
C745: x25+x31 <=1 
C746: x25+x34-y25_34 <=1 
C747: x25+x35-y25_35 <=1 
C748: x25+x36 <=1 
C749: x25+x39 <=1 
C750: x25+x41-y25_41 <=1 
C751: x25+x42-y25_42 <=1 
C752: x25+x44 <=1 
C753: x25+x46 <=1 
C754: x25+x48-y25_48 <=1 
C755: x25+x50-y25_50 <=1 
C756: x25+x51 <=1 
C757: x25+x53 <=1 
C758: x25+x54-y25_54 <=1 
C759: x25+x55-y25_55 <=1 
C760: x25+x56 <=1 
C761: x25+x59-y25_59 <=1 
C762: x25+x60-y25_60 <=1 
C763: x26+x27 <=1 
C764: x26+x28-y26_28 <=1 
C765: x26+x29-y26_29 <=1 
C766: x26+x30 <=1 
C767: x26+x31 <=1 
C768: x26+x32-y26_32 <=1 
C769: x26+x33 <=1 
C770: x26+x35-y26_35 <=1 
C771: x26+x38-y26_38 <=1 
C772: x26+x44 <=1 
C773: x26+x45-y26_45 <=1 
C774: x26+x46-y26_46 <=1 
C775: x26+x47 <=1 
C776: x26+x51-y26_51 <=1 
C777: x26+x54-y26_54 <=1 
C778: x26+x55-y26_55 <=1 
C779: x26+x56-y26_56 <=1 
C780: x26+x57 <=1 
C781: x26+x58 <=1 
C782: x26+x59-y26_59 <=1 
C783: x27+x28 <=1 
C784: x27+x31-y27_31 <=1 
C785: x27+x32 <=1 
C786: x27+x33 <=1 
C787: x27+x35-y27_35 <=1 
C788: x27+x38-y27_38 <=1 
C789: x27+x39 <=1 
C790: x27+x42-y27_42 <=1 
C791: x27+x43 <=1 
C792: x27+x44-y27_44 <=1 
C793: x27+x45 <=1 
C794: x27+x48 <=1 
C795: x27+x49-y27_49 <=1 
C796: x27+x50-y27_50 <=1 
C797: x27+x51-y27_51 <=1 
C798: x27+x52 <=1 
C799: x27+x53 <=1 
C800: x27+x55-y27_55 <=1 
C801: x27+x57-y27_57 <=1 
C802: x27+x58-y27_58 <=1 
C803: x27+x60-y27_60 <=1 
C804: x28+x29 <=1 
C805: x28+x30-y28_30 <=1 
C806: x28+x31-y28_31 <=1 
C807: x28+x32-y28_32 <=1 
C808: x28+x35-y28_35 <=1 
C809: x28+x36 <=1 
C810: x28+x37 <=1 
C811: x28+x38-y28_38 <=1 
C812: x28+x39 <=1 
C813: x28+x40-y28_40 <=1 
C814: x28+x41 <=1 
C815: x28+x43 <=1 
C816: x28+x44-y28_44 <=1 
C817: x28+x46-y28_46 <=1 
C818: x28+x49 <=1 
C819: x28+x50 <=1 
C820: x28+x54-y28_54 <=1 
C821: x28+x55-y28_55 <=1 
C822: x28+x57-y28_57 <=1 
C823: x28+x58 <=1 
C824: x28+x59-y28_59 <=1 
C825: x28+x60-y28_60 <=1 
C826: x29+x30-y29_30 <=1 
C827: x29+x31-y29_31 <=1 
C828: x29+x32-y29_32 <=1 
C829: x29+x33-y29_33 <=1 
C830: x29+x34 <=1 
C831: x29+x35-y29_35 <=1 
C832: x29+x36-y29_36 <=1 
C833: x29+x37 <=1 
C834: x29+x40 <=1 
C835: x29+x41-y29_41 <=1 
C836: x29+x42 <=1 
C837: x29+x43 <=1 
C838: x29+x44 <=1 
C839: x29+x45 <=1 
C840: x29+x46 <=1 
C841: x29+x47 <=1 
C842: x29+x48 <=1 
C843: x29+x49-y29_49 <=1 
C844: x29+x51-y29_51 <=1 
C845: x29+x52 <=1 
C846: x29+x53-y29_53 <=1 
C847: x29+x55-y29_55 <=1 
C848: x29+x56-y29_56 <=1 
C849: x29+x58 <=1 
C850: x29+x60-y29_60 <=1 
C851: x30+x32 <=1 
C852: x30+x34-y30_34 <=1 
C853: x30+x36-y30_36 <=1 
C854: x30+x38 <=1 
C855: x30+x39 <=1 
C856: x30+x40 <=1 
C857: x30+x41-y30_41 <=1 
C858: x30+x42 <=1 
C859: x30+x43 <=1 
C860: x30+x44 <=1 
C861: x30+x46-y30_46 <=1 
C862: x30+x49-y30_49 <=1 
C863: x30+x50 <=1 
C864: x30+x51 <=1 
C865: x30+x52-y30_52 <=1 
C866: x30+x55-y30_55 <=1 
C867: x30+x56 <=1 
C868: x30+x57 <=1 
C869: x30+x58-y30_58 <=1 
C870: x30+x59-y30_59 <=1 
C871: x30+x60 <=1 
C872: x31+x32 <=1 
C873: x31+x33 <=1 
C874: x31+x34 <=1 
C875: x31+x35-y31_35 <=1 
C876: x31+x36 <=1 
C877: x31+x37 <=1 
C878: x31+x40-y31_40 <=1 
C879: x31+x42-y31_42 <=1 
C880: x31+x43-y31_43 <=1 
C881: x31+x44 <=1 
C882: x31+x47 <=1 
C883: x31+x49-y31_49 <=1 
C884: x31+x50 <=1 
C885: x31+x52 <=1 
C886: x31+x53-y31_53 <=1 
C887: x31+x54 <=1 
C888: x31+x56 <=1 
C889: x31+x57 <=1 
C890: x31+x58-y31_58 <=1 
C891: x31+x59-y31_59 <=1 
C892: x32+x33-y32_33 <=1 
C893: x32+x34 <=1 
C894: x32+x35-y32_35 <=1 
C895: x32+x36 <=1 
C896: x32+x38-y32_38 <=1 
C897: x32+x39-y32_39 <=1 
C898: x32+x42-y32_42 <=1 
C899: x32+x43-y32_43 <=1 
C900: x32+x45 <=1 
C901: x32+x46-y32_46 <=1 
C902: x32+x48-y32_48 <=1 
C903: x32+x52-y32_52 <=1 
C904: x32+x53 <=1 
C905: x32+x54 <=1 
C906: x32+x55-y32_55 <=1 
C907: x32+x56 <=1 
C908: x32+x57-y32_57 <=1 
C909: x32+x60 <=1 
C910: x33+x34 <=1 
C911: x33+x35-y33_35 <=1 
C912: x33+x36-y33_36 <=1 
C913: x33+x37 <=1 
C914: x33+x38-y33_38 <=1 
C915: x33+x39-y33_39 <=1 
C916: x33+x41-y33_41 <=1 
C917: x33+x42 <=1 
C918: x33+x43-y33_43 <=1 
C919: x33+x44-y33_44 <=1 
C920: x33+x47-y33_47 <=1 
C921: x33+x48-y33_48 <=1 
C922: x33+x49 <=1 
C923: x33+x50 <=1 
C924: x33+x51 <=1 
C925: x33+x52-y33_52 <=1 
C926: x33+x53-y33_53 <=1 
C927: x33+x55 <=1 
C928: x33+x56 <=1 
C929: x33+x57-y33_57 <=1 
C930: x33+x60-y33_60 <=1 
C931: x34+x36-y34_36 <=1 
C932: x34+x40 <=1 
C933: x34+x42 <=1 
C934: x34+x44 <=1 
C935: x34+x46 <=1 
C936: x34+x50 <=1 
C937: x34+x51-y34_51 <=1 
C938: x34+x53-y34_53 <=1 
C939: x34+x54 <=1 
C940: x34+x56 <=1 
C941: x34+x57-y34_57 <=1 
C942: x34+x58-y34_58 <=1 
C943: x34+x60-y34_60 <=1 
C944: x35+x36-y35_36 <=1 
C945: x35+x37-y35_37 <=1 
C946: x35+x40 <=1 
C947: x35+x41 <=1 
C948: x35+x43 <=1 
C949: x35+x45-y35_45 <=1 
C950: x35+x46 <=1 
C951: x35+x47-y35_47 <=1 
C952: x35+x51-y35_51 <=1 
C953: x35+x52-y35_52 <=1 
C954: x35+x55 <=1 
C955: x35+x60-y35_60 <=1 
C956: x36+x39-y36_39 <=1 
C957: x36+x40 <=1 
C958: x36+x41 <=1 
C959: x36+x43 <=1 
C960: x36+x46-y36_46 <=1 
C961: x36+x47 <=1 
C962: x36+x48 <=1 
C963: x36+x49-y36_49 <=1 
C964: x36+x51-y36_51 <=1 
C965: x36+x53-y36_53 <=1 
C966: x36+x54 <=1 
C967: x36+x55 <=1 
C968: x36+x57-y36_57 <=1 
C969: x36+x58-y36_58 <=1 
C970: x37+x38-y37_38 <=1 
C971: x37+x39-y37_39 <=1 
C972: x37+x41-y37_41 <=1 
C973: x37+x45-y37_45 <=1 
C974: x37+x47 <=1 
C975: x37+x50-y37_50 <=1 
C976: x37+x52-y37_52 <=1 
C977: x37+x54 <=1 
C978: x37+x55-y37_55 <=1 
C979: x37+x56-y37_56 <=1 
C980: x37+x58 <=1 
C981: x38+x39 <=1 
C982: x38+x40-y38_40 <=1 
C983: x38+x41 <=1 
C984: x38+x42 <=1 
C985: x38+x43-y38_43 <=1 
C986: x38+x44 <=1 
C987: x38+x45-y38_45 <=1 
C988: x38+x49 <=1 
C989: x38+x50 <=1 
C990: x38+x53 <=1 
C991: x38+x56-y38_56 <=1 
C992: x38+x57-y38_57 <=1 
C993: x38+x58-y38_58 <=1 
C994: x38+x60-y38_60 <=1 
C995: x39+x41 <=1 
C996: x39+x42-y39_42 <=1 
C997: x39+x43 <=1 
C998: x39+x45-y39_45 <=1 
C999: x39+x46-y39_46 <=1 
C1000: x39+x47-y39_47 <=1 
C1001: x39+x49 <=1 
C1002: x39+x50 <=1 
C1003: x39+x51-y39_51 <=1 
C1004: x39+x54 <=1 
C1005: x39+x55-y39_55 <=1 
C1006: x39+x60 <=1 
C1007: x40+x41-y40_41 <=1 
C1008: x40+x42 <=1 
C1009: x40+x43 <=1 
C1010: x40+x47-y40_47 <=1 
C1011: x40+x48-y40_48 <=1 
C1012: x40+x49-y40_49 <=1 
C1013: x40+x50-y40_50 <=1 
C1014: x40+x52 <=1 
C1015: x40+x54-y40_54 <=1 
C1016: x40+x55 <=1 
C1017: x40+x56-y40_56 <=1 
C1018: x40+x57 <=1 
C1019: x40+x58-y40_58 <=1 
C1020: x40+x60 <=1 
C1021: x41+x43-y41_43 <=1 
C1022: x41+x46 <=1 
C1023: x41+x47-y41_47 <=1 
C1024: x41+x50-y41_50 <=1 
C1025: x41+x51 <=1 
C1026: x41+x52-y41_52 <=1 
C1027: x41+x53-y41_53 <=1 
C1028: x41+x54 <=1 
C1029: x41+x55-y41_55 <=1 
C1030: x41+x57 <=1 
C1031: x41+x58-y41_58 <=1 
C1032: x41+x59 <=1 
C1033: x41+x60-y41_60 <=1 
C1034: x42+x43-y42_43 <=1 
C1035: x42+x44 <=1 
C1036: x42+x45 <=1 
C1037: x42+x48-y42_48 <=1 
C1038: x42+x50-y42_50 <=1 
C1039: x42+x52 <=1 
C1040: x42+x55-y42_55 <=1 
C1041: x42+x58 <=1 
C1042: x43+x45 <=1 
C1043: x43+x47 <=1 
C1044: x43+x48-y43_48 <=1 
C1045: x43+x49-y43_49 <=1 
C1046: x43+x51-y43_51 <=1 
C1047: x43+x52-y43_52 <=1 
C1048: x43+x53 <=1 
C1049: x43+x56 <=1 
C1050: x43+x57 <=1 
C1051: x43+x59 <=1 
C1052: x43+x60 <=1 
C1053: x44+x45-y44_45 <=1 
C1054: x44+x46 <=1 
C1055: x44+x47-y44_47 <=1 
C1056: x44+x48-y44_48 <=1 
C1057: x44+x52-y44_52 <=1 
C1058: x44+x54-y44_54 <=1 
C1059: x44+x56 <=1 
C1060: x44+x57-y44_57 <=1 
C1061: x44+x60 <=1 
C1062: x45+x46-y45_46 <=1 
C1063: x45+x47 <=1 
C1064: x45+x48 <=1 
C1065: x45+x49 <=1 
C1066: x45+x50 <=1 
C1067: x45+x51-y45_51 <=1 
C1068: x45+x53-y45_53 <=1 
C1069: x45+x54-y45_54 <=1 
C1070: x45+x55 <=1 
C1071: x45+x57-y45_57 <=1 
C1072: x45+x58-y45_58 <=1 
C1073: x45+x59 <=1 
C1074: x45+x60 <=1 
C1075: x46+x49-y46_49 <=1 
C1076: x46+x51 <=1 
C1077: x46+x52-y46_52 <=1 
C1078: x46+x56-y46_56 <=1 
C1079: x46+x57-y46_57 <=1 
C1080: x46+x58-y46_58 <=1 
C1081: x46+x60-y46_60 <=1 
C1082: x47+x48-y47_48 <=1 
C1083: x47+x49-y47_49 <=1 
C1084: x47+x51 <=1 
C1085: x47+x53 <=1 
C1086: x47+x54-y47_54 <=1 
C1087: x47+x55 <=1 
C1088: x47+x56-y47_56 <=1 
C1089: x47+x57 <=1 
C1090: x47+x58-y47_58 <=1 
C1091: x47+x60-y47_60 <=1 
C1092: x48+x50-y48_50 <=1 
C1093: x48+x52 <=1 
C1094: x48+x54 <=1 
C1095: x48+x55-y48_55 <=1 
C1096: x48+x56-y48_56 <=1 
C1097: x48+x58 <=1 
C1098: x48+x59 <=1 
C1099: x48+x60-y48_60 <=1 
C1100: x49+x53-y49_53 <=1 
C1101: x49+x54-y49_54 <=1 
C1102: x49+x57-y49_57 <=1 
C1103: x50+x52 <=1 
C1104: x50+x54-y50_54 <=1 
C1105: x50+x55-y50_55 <=1 
C1106: x50+x56-y50_56 <=1 
C1107: x50+x57 <=1 
C1108: x50+x58-y50_58 <=1 
C1109: x50+x60-y50_60 <=1 
C1110: x51+x52 <=1 
C1111: x51+x53 <=1 
C1112: x51+x54 <=1 
C1113: x51+x55 <=1 
C1114: x51+x57 <=1 
C1115: x51+x58 <=1 
C1116: x51+x60-y51_60 <=1 
C1117: x52+x55-y52_55 <=1 
C1118: x52+x56 <=1 
C1119: x52+x57 <=1 
C1120: x52+x58 <=1 
C1121: x52+x60 <=1 
C1122: x53+x54 <=1 
C1123: x53+x55 <=1 
C1124: x53+x56 <=1 
C1125: x53+x57 <=1 
C1126: x53+x58 <=1 
C1127: x53+x60 <=1 
C1128: x54+x55-y54_55 <=1 
C1129: x54+x57 <=1 
C1130: x54+x59 <=1 
C1131: x55+x56 <=1 
C1132: x55+x57 <=1 
C1133: x55+x59-y55_59 <=1 
C1134: x56+x59-y56_59 <=1 
C1135: x56+x60 <=1 
C1136: x57+x58-y57_58 <=1 
C1137: x57+x59 <=1 
C1138: x58+x59 <=1 
C1139: x58+x60-y58_60 <=1 

binary
x0
x1
x2
x3
x4
x5
x6
x7
x8
x9
x10
x11
x12
x13
x14
x15
x16
x17
x18
x19
x20
x21
x22
x23
x24
x25
x26
x27
x28
x29
x30
x31
x32
x33
x34
x35
x36
x37
x38
x39
x40
x41
x42
x43
x44
x45
x46
x47
x48
x49
x50
x51
x52
x53
x54
x55
x56
x57
x58
x59
x60
