problem_generation/data/GISP/train/er_n=61_m=1139_p=0.60_SET2_setparam=100.00_alpha=0.50_842.sol
objective value:                                 1180
x0                                                  1 	(obj:100)
x4                                                  1 	(obj:100)
x6                                                  1 	(obj:100)
x18                                                 1 	(obj:100)
x24                                                 1 	(obj:100)
x35                                                 1 	(obj:100)
x36                                                 1 	(obj:100)
x42                                                 1 	(obj:100)
x49                                                 1 	(obj:100)
x50                                                 1 	(obj:100)
x51                                                 1 	(obj:100)
x59                                                 1 	(obj:100)
y18_35                                              1 	(obj:-1)
y6_42                                               1 	(obj:-1)
y36_51                                              1 	(obj:-1)
y35_36                                              1 	(obj:-1)
y24_49                                              1 	(obj:-1)
y24_35                                              1 	(obj:-1)
y0_59                                               1 	(obj:-1)
y0_36                                               1 	(obj:-1)
y4_6                                                1 	(obj:-1)
y0_4                                                1 	(obj:-1)
y0_35                                               1 	(obj:-1)
y6_59                                               1 	(obj:-1)
y36_49                                              1 	(obj:-1)
y4_42                                               1 	(obj:-1)
y24_42                                              1 	(obj:-1)
y35_51                                              1 	(obj:-1)
y42_50                                              1 	(obj:-1)
y18_59                                              1 	(obj:-1)
y18_36                                              1 	(obj:-1)
y0_24                                               1 	(obj:-1)
